=1
=2
=0IBM ILOG CPLEX   42.1.0 cb854401 Feb 1, 2023           LEG x86 64bit/Linux    
=1
--- GAMS/Cplex licensed for continuous and discrete problems.
=2
=C
=1
=CReading parameter(s) from "/storage/home/ejm6426/scratch/rtRBA-main/parameterization/kapp/datasets/Rabinowitz2023_batchGlc/min_flux_violation/cplex.opt"
=C>>  optcr = 1E-12
=C>>  optca = 1E-12
=C>>  eprhs = 1E-9
=C>> 
=CFinished reading from "/storage/home/ejm6426/scratch/rtRBA-main/parameterization/kapp/datasets/Rabinowitz2023_batchGlc/min_flux_violation/cplex.opt"
=2
=C
=1
--- GMO setup time: 0.00s
=2
=1
--- Space for names approximately 0.57 Mb
=2
=1
--- Use option 'names no' to turn use of names off
=2
=1
--- GMO memory 7.13 Mb (peak 7.23 Mb)
=2
=1
--- Dictionary memory 0.00 Mb
=2
=1
--- Cplex 22.1.1.0 link memory 0.31 Mb (peak 2.26 Mb)
=2
=1
--- Starting Cplex
=2
=C
Version identifier: 22.1.1.0 | 2022-11-28 | 9160aff4d
CPXPARAM_Advance                                 0
CPXPARAM_Threads                                 1
CPXPARAM_MIP_Display                             4
CPXPARAM_MIP_Pool_Capacity                       0
CPXPARAM_Simplex_Limits_Iterations               1000000
CPXPARAM_Simplex_Tolerances_Feasibility          1.0000000000000001e-09
CPXPARAM_TimeLimit                               1000
CPXPARAM_MIP_Tolerances_AbsMIPGap                9.9999999999999998e-13
CPXPARAM_MIP_Tolerances_MIPGap                   9.9999999999999998e-13
Tried aggregator 1 time.
LP Presolve eliminated 1945 rows and 7809 columns.
Aggregator did 2851 substitutions.
Reduced LP has 947 rows, 2016 columns, and 14255 nonzeros.
Presolve time = 0.07 sec. (20.04 ticks)

Iteration log . . .
Iteration:     1   Dual objective     =             0.000000
Perturbation started.
Iteration:   101   Dual objective     =             0.000000
Iteration:   157   Dual objective     =       1035990.184720
Iteration:   242   Dual objective     =       1683931.055854
Iteration:   304   Dual objective     =       1836225.784814
Iteration:   366   Dual objective     =       1910859.862015
Iteration:   428   Dual objective     =       2093947.620594
Iteration:   490   Dual objective     =       2244303.806701
Iteration:   552   Dual objective     =       2445580.342631
Iteration:   614   Dual objective     =       2538961.557538
Iteration:   692   Dual objective     =       2595301.806119
Markowitz threshold set to 0.1
Iteration:   793   Dual objective     =       2595407.328420
Removing perturbation.
Iteration:   804   Dual objective     =             0.000000
Iteration:   881   Dual objective     =             1.633807
Iteration:   939   Dual objective     =             2.242536
Iteration:   940   Dual objective     =             2.242536
=C
=1
--- LP status (3): infeasible.
=2
=1
--- Cplex Time: 0.10sec (det. 54.53 ticks)

=2
=C
=CModel has been proven infeasible
=C
